peakDumbCharging = 11100; 
Machine = anon_enum(16); 
machineSpeed = [3700,3700,3700,3700,3700,3700,3700,3700,3700,3700,3700,3700,3700,3700,3700,3700]; 
machineLoad = [3700,3700,3700,3700,3700,3700,3700,3700,3700,3700,3700,3700,3700,3700,3700,3700]; 
Car = anon_enum(13); 
demandCar = [19320,9320,13520,2040,8200,3360,5760,10120,6800,23160,9040,13520,10200]; 
arrivalCar = [65,60,59,58,53,51,51,44,43,33,30,28,27]; 
departureCar = [71,64,73,60,57,54,53,48,57,42,33,33,31]; 
